Maximize
  9 x0_0_ + 9 x0_1_ + 9 x0_2_ + 9 x0_3_ + 9 x0_4_ + 9 x0_5_ + 7 x0_6_
   + 2 x0_7_ + 2 x0_8_ + 2 x0_9_ + 360 x1_7_ + 360 x1_8_ + 360 x1_9_
   + 51 x2_7_ + 51 x2_8_ + 51 x2_9_ + 17 x3_7_ + 17 x3_8_ + 17 x3_9_
   + 34 x4_7_ + 34 x4_8_ + 34 x4_9_ + 9 x5_0_ + 9 x5_1_ + 9 x5_2_ + 9 x5_3_
   + 9 x5_4_ + 9 x5_5_ + 7 x5_6_ + 2 x5_7_ + 2 x5_8_ + 2 x5_9_ + 144 x6_7_
   + 144 x6_8_ + 144 x6_9_ + 27 x7_0_ + 27 x7_1_ + 27 x7_2_ + 27 x7_3_
   + 27 x7_4_ + 27 x7_5_ + 21 x7_6_ + 6 x7_7_ + 6 x7_8_ + 6 x7_9_
   + 27 x8_0_ + 27 x8_1_ + 27 x8_2_ + 27 x8_3_ + 27 x8_4_ + 27 x8_5_
   + 21 x8_6_ + 6 x8_7_ + 6 x8_8_ + 6 x8_9_ + 9 x9_0_ + 9 x9_1_ + 9 x9_2_
   + 9 x9_3_ + 9 x9_4_ + 9 x9_5_ + 7 x9_6_ + 2 x9_7_ + 2 x9_8_ + 2 x9_9_
   + 45 x10_0_ + 45 x10_1_ + 45 x10_2_ + 45 x10_3_ + 45 x10_4_ + 45 x10_5_
   + 35 x10_6_ + 10 x10_7_ + 10 x10_8_ + 10 x10_9_ + 360 x11_7_
   + 360 x11_8_ + 360 x11_9_ + 72 x12_7_ + 72 x12_8_ + 72 x12_9_ + 9 x13_0_
   + 9 x13_1_ + 9 x13_2_ + 9 x13_3_ + 9 x13_4_ + 9 x13_5_ + 7 x13_6_
   + 2 x13_7_ + 2 x13_8_ + 2 x13_9_ + 17 x14_7_ + 17 x14_8_ + 17 x14_9_
   + 85 x15_7_ + 85 x15_8_ + 85 x15_9_ + 18 x16_0_ + 18 x16_1_ + 18 x16_2_
   + 18 x16_3_ + 18 x16_4_ + 18 x16_5_ + 14 x16_6_ + 4 x16_7_ + 4 x16_8_
   + 4 x16_9_ + 27 x17_0_ + 27 x17_1_ + 27 x17_2_ + 27 x17_3_ + 27 x17_4_
   + 27 x17_5_ + 21 x17_6_ + 6 x17_7_ + 6 x17_8_ + 6 x17_9_ + 36 x18_0_
   + 36 x18_1_ + 36 x18_2_ + 36 x18_3_ + 36 x18_4_ + 36 x18_5_ + 28 x18_6_
   + 8 x18_7_ + 8 x18_8_ + 8 x18_9_ + 18 x19_0_ + 18 x19_1_ + 18 x19_2_
   + 18 x19_3_ + 18 x19_4_ + 18 x19_5_ + 14 x19_6_ + 4 x19_7_ + 4 x19_8_
   + 4 x19_9_
Subject To
 R0: x0_0_ + x0_1_ + x0_2_ + x0_3_ + x0_4_ + x0_5_ + x0_6_ + x0_7_ + x0_8_
   + x0_9_ + x0_n_ = 1
 R1: x1_6_ + x1_7_ + x1_8_ + x1_9_ + x1_n_ = 1
 R2: x2_7_ + x2_8_ + x2_9_ + x2_n_ = 1
 R3: x3_7_ + x3_8_ + x3_9_ + x3_n_ = 1
 R4: x4_7_ + x4_8_ + x4_9_ + x4_n_ = 1
 R5: x5_0_ + x5_1_ + x5_2_ + x5_3_ + x5_4_ + x5_5_ + x5_6_ + x5_7_ + x5_8_
   + x5_9_ + x5_n_ = 1
 R6: x6_6_ + x6_7_ + x6_8_ + x6_9_ + x6_n_ = 1
 R7: x7_0_ + x7_1_ + x7_2_ + x7_3_ + x7_4_ + x7_5_ + x7_6_ + x7_7_ + x7_8_
   + x7_9_ + x7_n_ = 1
 R8: x8_0_ + x8_1_ + x8_2_ + x8_3_ + x8_4_ + x8_5_ + x8_6_ + x8_7_ + x8_8_
   + x8_9_ + x8_n_ = 1
 R9: x9_0_ + x9_1_ + x9_2_ + x9_3_ + x9_4_ + x9_5_ + x9_6_ + x9_7_ + x9_8_
   + x9_9_ + x9_n_ = 1
 R10: x10_0_ + x10_1_ + x10_2_ + x10_3_ + x10_4_ + x10_5_ + x10_6_ + x10_7_
   + x10_8_ + x10_9_ + x10_n_ = 1
 R11: x11_6_ + x11_7_ + x11_8_ + x11_9_ + x11_n_ = 1
 R12: x12_6_ + x12_7_ + x12_8_ + x12_9_ + x12_n_ = 1
 R13: x13_0_ + x13_1_ + x13_2_ + x13_3_ + x13_4_ + x13_5_ + x13_6_ + x13_7_
   + x13_8_ + x13_9_ + x13_n_ = 1
 R14: x14_7_ + x14_8_ + x14_9_ + x14_n_ = 1
 R15: x15_7_ + x15_8_ + x15_9_ + x15_n_ = 1
 R16: x16_0_ + x16_1_ + x16_2_ + x16_3_ + x16_4_ + x16_5_ + x16_6_ + x16_7_
   + x16_8_ + x16_9_ + x16_n_ = 1
 R17: x17_0_ + x17_1_ + x17_2_ + x17_3_ + x17_4_ + x17_5_ + x17_6_ + x17_7_
   + x17_8_ + x17_9_ + x17_n_ = 1
 R18: x18_0_ + x18_1_ + x18_2_ + x18_3_ + x18_4_ + x18_5_ + x18_6_ + x18_7_
   + x18_8_ + x18_9_ + x18_n_ = 1
 R19: x19_0_ + x19_1_ + x19_2_ + x19_3_ + x19_4_ + x19_5_ + x19_6_ + x19_7_
   + x19_8_ + x19_9_ + x19_n_ = 1
 R20: x0_0_ + x10_0_ <= 1
 R21: x0_1_ + x10_1_ <= 1
 R22: x0_2_ + x10_2_ <= 1
 R23: x0_3_ + x10_3_ <= 1
 R24: x0_4_ + x10_4_ <= 1
 R25: x0_5_ + x10_5_ <= 1
 R26: x0_6_ + x10_6_ <= 1
 R27: x0_7_ + x10_7_ <= 1
 R28: x0_8_ + x10_8_ <= 1
 R29: x0_9_ + x10_9_ <= 1
 R30: x0_0_ + x13_0_ <= 1
 R31: x0_1_ + x13_1_ <= 1
 R32: x0_2_ + x13_2_ <= 1
 R33: x0_3_ + x13_3_ <= 1
 R34: x0_4_ + x13_4_ <= 1
 R35: x0_5_ + x13_5_ <= 1
 R36: x0_6_ + x13_6_ <= 1
 R37: x0_7_ + x13_7_ <= 1
 R38: x0_8_ + x13_8_ <= 1
 R39: x0_9_ + x13_9_ <= 1
 R40: x0_0_ + x18_0_ <= 1
 R41: x0_1_ + x18_1_ <= 1
 R42: x0_2_ + x18_2_ <= 1
 R43: x0_3_ + x18_3_ <= 1
 R44: x0_4_ + x18_4_ <= 1
 R45: x0_5_ + x18_5_ <= 1
 R46: x0_6_ + x18_6_ <= 1
 R47: x0_7_ + x18_7_ <= 1
 R48: x0_8_ + x18_8_ <= 1
 R49: x0_9_ + x18_9_ <= 1
 R50: x0_6_ + x1_6_ <= 1
 R51: x0_7_ + x1_7_ <= 1
 R52: x0_8_ + x1_8_ <= 1
 R53: x0_9_ + x1_9_ <= 1
 R54: x1_6_ + x6_6_ <= 1
 R55: x1_7_ + x6_7_ <= 1
 R56: x1_8_ + x6_8_ <= 1
 R57: x1_9_ + x6_9_ <= 1
 R58: x1_6_ + x7_6_ <= 1
 R59: x1_7_ + x7_7_ <= 1
 R60: x1_8_ + x7_8_ <= 1
 R61: x1_9_ + x7_9_ <= 1
 R62: x1_6_ + x8_6_ <= 1
 R63: x1_7_ + x8_7_ <= 1
 R64: x1_8_ + x8_8_ <= 1
 R65: x1_9_ + x8_9_ <= 1
 R66: x1_6_ + x9_6_ <= 1
 R67: x1_7_ + x9_7_ <= 1
 R68: x1_8_ + x9_8_ <= 1
 R69: x1_9_ + x9_9_ <= 1
 R70: x1_6_ + x10_6_ <= 1
 R71: x1_7_ + x10_7_ <= 1
 R72: x1_8_ + x10_8_ <= 1
 R73: x1_9_ + x10_9_ <= 1
 R74: x1_6_ + x11_6_ <= 1
 R75: x1_7_ + x11_7_ <= 1
 R76: x1_8_ + x11_8_ <= 1
 R77: x1_9_ + x11_9_ <= 1
 R78: x1_6_ + x12_6_ <= 1
 R79: x1_7_ + x12_7_ <= 1
 R80: x1_8_ + x12_8_ <= 1
 R81: x1_9_ + x12_9_ <= 1
 R82: x1_6_ + x13_6_ <= 1
 R83: x1_7_ + x13_7_ <= 1
 R84: x1_8_ + x13_8_ <= 1
 R85: x1_9_ + x13_9_ <= 1
 R86: x1_6_ + x16_6_ <= 1
 R87: x1_7_ + x16_7_ <= 1
 R88: x1_8_ + x16_8_ <= 1
 R89: x1_9_ + x16_9_ <= 1
 R90: x1_6_ + x17_6_ <= 1
 R91: x1_7_ + x17_7_ <= 1
 R92: x1_8_ + x17_8_ <= 1
 R93: x1_9_ + x17_9_ <= 1
 R94: x1_6_ + x18_6_ <= 1
 R95: x1_7_ + x18_7_ <= 1
 R96: x1_8_ + x18_8_ <= 1
 R97: x1_9_ + x18_9_ <= 1
 R98: x1_6_ + x19_6_ <= 1
 R99: x1_7_ + x19_7_ <= 1
 R100: x1_8_ + x19_8_ <= 1
 R101: x1_9_ + x19_9_ <= 1
 R102: x2_7_ + x4_7_ <= 1
 R103: x2_8_ + x4_8_ <= 1
 R104: x2_9_ + x4_9_ <= 1
 R105: x2_7_ + x5_7_ <= 1
 R106: x2_8_ + x5_8_ <= 1
 R107: x2_9_ + x5_9_ <= 1
 R108: x2_7_ + x7_7_ <= 1
 R109: x2_8_ + x7_8_ <= 1
 R110: x2_9_ + x7_9_ <= 1
 R111: x2_7_ + x11_7_ <= 1
 R112: x2_8_ + x11_8_ <= 1
 R113: x2_9_ + x11_9_ <= 1
 R114: x2_7_ + x15_7_ <= 1
 R115: x2_8_ + x15_8_ <= 1
 R116: x2_9_ + x15_9_ <= 1
 R117: x3_7_ + x10_7_ <= 1
 R118: x3_8_ + x10_8_ <= 1
 R119: x3_9_ + x10_9_ <= 1
 R120: x3_7_ + x18_7_ <= 1
 R121: x3_8_ + x18_8_ <= 1
 R122: x3_9_ + x18_9_ <= 1
 R123: x1_7_ + x4_7_ <= 1
 R124: x1_8_ + x4_8_ <= 1
 R125: x1_9_ + x4_9_ <= 1
 R126: x2_7_ + x4_7_ <= 1
 R127: x2_8_ + x4_8_ <= 1
 R128: x2_9_ + x4_9_ <= 1
 R129: x4_7_ + x7_7_ <= 1
 R130: x4_8_ + x7_8_ <= 1
 R131: x4_9_ + x7_9_ <= 1
 R132: x4_7_ + x11_7_ <= 1
 R133: x4_8_ + x11_8_ <= 1
 R134: x4_9_ + x11_9_ <= 1
 R135: x4_7_ + x14_7_ <= 1
 R136: x4_8_ + x14_8_ <= 1
 R137: x4_9_ + x14_9_ <= 1
 R138: x4_7_ + x15_7_ <= 1
 R139: x4_8_ + x15_8_ <= 1
 R140: x4_9_ + x15_9_ <= 1
 R141: x4_7_ + x16_7_ <= 1
 R142: x4_8_ + x16_8_ <= 1
 R143: x4_9_ + x16_9_ <= 1
 R144: x4_7_ + x17_7_ <= 1
 R145: x4_8_ + x17_8_ <= 1
 R146: x4_9_ + x17_9_ <= 1
 R147: x5_0_ + x7_0_ <= 1
 R148: x5_1_ + x7_1_ <= 1
 R149: x5_2_ + x7_2_ <= 1
 R150: x5_3_ + x7_3_ <= 1
 R151: x5_4_ + x7_4_ <= 1
 R152: x5_5_ + x7_5_ <= 1
 R153: x5_6_ + x7_6_ <= 1
 R154: x5_7_ + x7_7_ <= 1
 R155: x5_8_ + x7_8_ <= 1
 R156: x5_9_ + x7_9_ <= 1
 R157: x1_6_ + x6_6_ <= 1
 R158: x1_7_ + x6_7_ <= 1
 R159: x1_8_ + x6_8_ <= 1
 R160: x1_9_ + x6_9_ <= 1
 R161: x6_6_ + x8_6_ <= 1
 R162: x6_7_ + x8_7_ <= 1
 R163: x6_8_ + x8_8_ <= 1
 R164: x6_9_ + x8_9_ <= 1
 R165: x6_6_ + x9_6_ <= 1
 R166: x6_7_ + x9_7_ <= 1
 R167: x6_8_ + x9_8_ <= 1
 R168: x6_9_ + x9_9_ <= 1
 R169: x6_6_ + x10_6_ <= 1
 R170: x6_7_ + x10_7_ <= 1
 R171: x6_8_ + x10_8_ <= 1
 R172: x6_9_ + x10_9_ <= 1
 R173: x6_6_ + x11_6_ <= 1
 R174: x6_7_ + x11_7_ <= 1
 R175: x6_8_ + x11_8_ <= 1
 R176: x6_9_ + x11_9_ <= 1
 R177: x6_6_ + x16_6_ <= 1
 R178: x6_7_ + x16_7_ <= 1
 R179: x6_8_ + x16_8_ <= 1
 R180: x6_9_ + x16_9_ <= 1
 R181: x6_6_ + x17_6_ <= 1
 R182: x6_7_ + x17_7_ <= 1
 R183: x6_8_ + x17_8_ <= 1
 R184: x6_9_ + x17_9_ <= 1
 R185: x6_6_ + x18_6_ <= 1
 R186: x6_7_ + x18_7_ <= 1
 R187: x6_8_ + x18_8_ <= 1
 R188: x6_9_ + x18_9_ <= 1
 R189: x6_6_ + x19_6_ <= 1
 R190: x6_7_ + x19_7_ <= 1
 R191: x6_8_ + x19_8_ <= 1
 R192: x6_9_ + x19_9_ <= 1
 R193: x5_0_ + x7_0_ <= 1
 R194: x5_1_ + x7_1_ <= 1
 R195: x5_2_ + x7_2_ <= 1
 R196: x5_3_ + x7_3_ <= 1
 R197: x5_4_ + x7_4_ <= 1
 R198: x5_5_ + x7_5_ <= 1
 R199: x5_6_ + x7_6_ <= 1
 R200: x5_7_ + x7_7_ <= 1
 R201: x5_8_ + x7_8_ <= 1
 R202: x5_9_ + x7_9_ <= 1
 R203: x7_0_ + x16_0_ <= 1
 R204: x7_1_ + x16_1_ <= 1
 R205: x7_2_ + x16_2_ <= 1
 R206: x7_3_ + x16_3_ <= 1
 R207: x7_4_ + x16_4_ <= 1
 R208: x7_5_ + x16_5_ <= 1
 R209: x7_6_ + x16_6_ <= 1
 R210: x7_7_ + x16_7_ <= 1
 R211: x7_8_ + x16_8_ <= 1
 R212: x7_9_ + x16_9_ <= 1
 R213: x7_0_ + x17_0_ <= 1
 R214: x7_1_ + x17_1_ <= 1
 R215: x7_2_ + x17_2_ <= 1
 R216: x7_3_ + x17_3_ <= 1
 R217: x7_4_ + x17_4_ <= 1
 R218: x7_5_ + x17_5_ <= 1
 R219: x7_6_ + x17_6_ <= 1
 R220: x7_7_ + x17_7_ <= 1
 R221: x7_8_ + x17_8_ <= 1
 R222: x7_9_ + x17_9_ <= 1
 R223: x8_0_ + x9_0_ <= 1
 R224: x8_1_ + x9_1_ <= 1
 R225: x8_2_ + x9_2_ <= 1
 R226: x8_3_ + x9_3_ <= 1
 R227: x8_4_ + x9_4_ <= 1
 R228: x8_5_ + x9_5_ <= 1
 R229: x8_6_ + x9_6_ <= 1
 R230: x8_7_ + x9_7_ <= 1
 R231: x8_8_ + x9_8_ <= 1
 R232: x8_9_ + x9_9_ <= 1
 R233: x8_0_ + x10_0_ <= 1
 R234: x8_1_ + x10_1_ <= 1
 R235: x8_2_ + x10_2_ <= 1
 R236: x8_3_ + x10_3_ <= 1
 R237: x8_4_ + x10_4_ <= 1
 R238: x8_5_ + x10_5_ <= 1
 R239: x8_6_ + x10_6_ <= 1
 R240: x8_7_ + x10_7_ <= 1
 R241: x8_8_ + x10_8_ <= 1
 R242: x8_9_ + x10_9_ <= 1
 R243: x8_0_ + x16_0_ <= 1
 R244: x8_1_ + x16_1_ <= 1
 R245: x8_2_ + x16_2_ <= 1
 R246: x8_3_ + x16_3_ <= 1
 R247: x8_4_ + x16_4_ <= 1
 R248: x8_5_ + x16_5_ <= 1
 R249: x8_6_ + x16_6_ <= 1
 R250: x8_7_ + x16_7_ <= 1
 R251: x8_8_ + x16_8_ <= 1
 R252: x8_9_ + x16_9_ <= 1
 R253: x8_0_ + x17_0_ <= 1
 R254: x8_1_ + x17_1_ <= 1
 R255: x8_2_ + x17_2_ <= 1
 R256: x8_3_ + x17_3_ <= 1
 R257: x8_4_ + x17_4_ <= 1
 R258: x8_5_ + x17_5_ <= 1
 R259: x8_6_ + x17_6_ <= 1
 R260: x8_7_ + x17_7_ <= 1
 R261: x8_8_ + x17_8_ <= 1
 R262: x8_9_ + x17_9_ <= 1
 R263: x8_0_ + x18_0_ <= 1
 R264: x8_1_ + x18_1_ <= 1
 R265: x8_2_ + x18_2_ <= 1
 R266: x8_3_ + x18_3_ <= 1
 R267: x8_4_ + x18_4_ <= 1
 R268: x8_5_ + x18_5_ <= 1
 R269: x8_6_ + x18_6_ <= 1
 R270: x8_7_ + x18_7_ <= 1
 R271: x8_8_ + x18_8_ <= 1
 R272: x8_9_ + x18_9_ <= 1
 R273: x8_0_ + x19_0_ <= 1
 R274: x8_1_ + x19_1_ <= 1
 R275: x8_2_ + x19_2_ <= 1
 R276: x8_3_ + x19_3_ <= 1
 R277: x8_4_ + x19_4_ <= 1
 R278: x8_5_ + x19_5_ <= 1
 R279: x8_6_ + x19_6_ <= 1
 R280: x8_7_ + x19_7_ <= 1
 R281: x8_8_ + x19_8_ <= 1
 R282: x8_9_ + x19_9_ <= 1
 R283: x8_0_ + x9_0_ <= 1
 R284: x8_1_ + x9_1_ <= 1
 R285: x8_2_ + x9_2_ <= 1
 R286: x8_3_ + x9_3_ <= 1
 R287: x8_4_ + x9_4_ <= 1
 R288: x8_5_ + x9_5_ <= 1
 R289: x8_6_ + x9_6_ <= 1
 R290: x8_7_ + x9_7_ <= 1
 R291: x8_8_ + x9_8_ <= 1
 R292: x8_9_ + x9_9_ <= 1
 R293: x9_0_ + x16_0_ <= 1
 R294: x9_1_ + x16_1_ <= 1
 R295: x9_2_ + x16_2_ <= 1
 R296: x9_3_ + x16_3_ <= 1
 R297: x9_4_ + x16_4_ <= 1
 R298: x9_5_ + x16_5_ <= 1
 R299: x9_6_ + x16_6_ <= 1
 R300: x9_7_ + x16_7_ <= 1
 R301: x9_8_ + x16_8_ <= 1
 R302: x9_9_ + x16_9_ <= 1
 R303: x9_0_ + x17_0_ <= 1
 R304: x9_1_ + x17_1_ <= 1
 R305: x9_2_ + x17_2_ <= 1
 R306: x9_3_ + x17_3_ <= 1
 R307: x9_4_ + x17_4_ <= 1
 R308: x9_5_ + x17_5_ <= 1
 R309: x9_6_ + x17_6_ <= 1
 R310: x9_7_ + x17_7_ <= 1
 R311: x9_8_ + x17_8_ <= 1
 R312: x9_9_ + x17_9_ <= 1
 R313: x0_0_ + x10_0_ <= 1
 R314: x0_1_ + x10_1_ <= 1
 R315: x0_2_ + x10_2_ <= 1
 R316: x0_3_ + x10_3_ <= 1
 R317: x0_4_ + x10_4_ <= 1
 R318: x0_5_ + x10_5_ <= 1
 R319: x0_6_ + x10_6_ <= 1
 R320: x0_7_ + x10_7_ <= 1
 R321: x0_8_ + x10_8_ <= 1
 R322: x0_9_ + x10_9_ <= 1
 R323: x8_0_ + x10_0_ <= 1
 R324: x8_1_ + x10_1_ <= 1
 R325: x8_2_ + x10_2_ <= 1
 R326: x8_3_ + x10_3_ <= 1
 R327: x8_4_ + x10_4_ <= 1
 R328: x8_5_ + x10_5_ <= 1
 R329: x8_6_ + x10_6_ <= 1
 R330: x8_7_ + x10_7_ <= 1
 R331: x8_8_ + x10_8_ <= 1
 R332: x8_9_ + x10_9_ <= 1
 R333: x10_0_ + x13_0_ <= 1
 R334: x10_1_ + x13_1_ <= 1
 R335: x10_2_ + x13_2_ <= 1
 R336: x10_3_ + x13_3_ <= 1
 R337: x10_4_ + x13_4_ <= 1
 R338: x10_5_ + x13_5_ <= 1
 R339: x10_6_ + x13_6_ <= 1
 R340: x10_7_ + x13_7_ <= 1
 R341: x10_8_ + x13_8_ <= 1
 R342: x10_9_ + x13_9_ <= 1
 R343: x10_0_ + x17_0_ <= 1
 R344: x10_1_ + x17_1_ <= 1
 R345: x10_2_ + x17_2_ <= 1
 R346: x10_3_ + x17_3_ <= 1
 R347: x10_4_ + x17_4_ <= 1
 R348: x10_5_ + x17_5_ <= 1
 R349: x10_6_ + x17_6_ <= 1
 R350: x10_7_ + x17_7_ <= 1
 R351: x10_8_ + x17_8_ <= 1
 R352: x10_9_ + x17_9_ <= 1
 R353: x10_0_ + x18_0_ <= 1
 R354: x10_1_ + x18_1_ <= 1
 R355: x10_2_ + x18_2_ <= 1
 R356: x10_3_ + x18_3_ <= 1
 R357: x10_4_ + x18_4_ <= 1
 R358: x10_5_ + x18_5_ <= 1
 R359: x10_6_ + x18_6_ <= 1
 R360: x10_7_ + x18_7_ <= 1
 R361: x10_8_ + x18_8_ <= 1
 R362: x10_9_ + x18_9_ <= 1
 R363: x10_0_ + x19_0_ <= 1
 R364: x10_1_ + x19_1_ <= 1
 R365: x10_2_ + x19_2_ <= 1
 R366: x10_3_ + x19_3_ <= 1
 R367: x10_4_ + x19_4_ <= 1
 R368: x10_5_ + x19_5_ <= 1
 R369: x10_6_ + x19_6_ <= 1
 R370: x10_7_ + x19_7_ <= 1
 R371: x10_8_ + x19_8_ <= 1
 R372: x10_9_ + x19_9_ <= 1
 R373: x1_6_ + x11_6_ <= 1
 R374: x1_7_ + x11_7_ <= 1
 R375: x1_8_ + x11_8_ <= 1
 R376: x1_9_ + x11_9_ <= 1
 R377: x6_6_ + x11_6_ <= 1
 R378: x6_7_ + x11_7_ <= 1
 R379: x6_8_ + x11_8_ <= 1
 R380: x6_9_ + x11_9_ <= 1
 R381: x7_6_ + x11_6_ <= 1
 R382: x7_7_ + x11_7_ <= 1
 R383: x7_8_ + x11_8_ <= 1
 R384: x7_9_ + x11_9_ <= 1
 R385: x8_6_ + x11_6_ <= 1
 R386: x8_7_ + x11_7_ <= 1
 R387: x8_8_ + x11_8_ <= 1
 R388: x8_9_ + x11_9_ <= 1
 R389: x9_6_ + x11_6_ <= 1
 R390: x9_7_ + x11_7_ <= 1
 R391: x9_8_ + x11_8_ <= 1
 R392: x9_9_ + x11_9_ <= 1
 R393: x10_6_ + x11_6_ <= 1
 R394: x10_7_ + x11_7_ <= 1
 R395: x10_8_ + x11_8_ <= 1
 R396: x10_9_ + x11_9_ <= 1
 R397: x11_6_ + x12_6_ <= 1
 R398: x11_7_ + x12_7_ <= 1
 R399: x11_8_ + x12_8_ <= 1
 R400: x11_9_ + x12_9_ <= 1
 R401: x11_6_ + x16_6_ <= 1
 R402: x11_7_ + x16_7_ <= 1
 R403: x11_8_ + x16_8_ <= 1
 R404: x11_9_ + x16_9_ <= 1
 R405: x11_6_ + x17_6_ <= 1
 R406: x11_7_ + x17_7_ <= 1
 R407: x11_8_ + x17_8_ <= 1
 R408: x11_9_ + x17_9_ <= 1
 R409: x11_6_ + x18_6_ <= 1
 R410: x11_7_ + x18_7_ <= 1
 R411: x11_8_ + x18_8_ <= 1
 R412: x11_9_ + x18_9_ <= 1
 R413: x11_6_ + x19_6_ <= 1
 R414: x11_7_ + x19_7_ <= 1
 R415: x11_8_ + x19_8_ <= 1
 R416: x11_9_ + x19_9_ <= 1
 R417: x1_6_ + x12_6_ <= 1
 R418: x1_7_ + x12_7_ <= 1
 R419: x1_8_ + x12_8_ <= 1
 R420: x1_9_ + x12_9_ <= 1
 R421: x8_6_ + x12_6_ <= 1
 R422: x8_7_ + x12_7_ <= 1
 R423: x8_8_ + x12_8_ <= 1
 R424: x8_9_ + x12_9_ <= 1
 R425: x10_6_ + x12_6_ <= 1
 R426: x10_7_ + x12_7_ <= 1
 R427: x10_8_ + x12_8_ <= 1
 R428: x10_9_ + x12_9_ <= 1
 R429: x11_6_ + x12_6_ <= 1
 R430: x11_7_ + x12_7_ <= 1
 R431: x11_8_ + x12_8_ <= 1
 R432: x11_9_ + x12_9_ <= 1
 R433: x12_6_ + x18_6_ <= 1
 R434: x12_7_ + x18_7_ <= 1
 R435: x12_8_ + x18_8_ <= 1
 R436: x12_9_ + x18_9_ <= 1
 R437: x12_6_ + x19_6_ <= 1
 R438: x12_7_ + x19_7_ <= 1
 R439: x12_8_ + x19_8_ <= 1
 R440: x12_9_ + x19_9_ <= 1
 R441: x0_0_ + x13_0_ <= 1
 R442: x0_1_ + x13_1_ <= 1
 R443: x0_2_ + x13_2_ <= 1
 R444: x0_3_ + x13_3_ <= 1
 R445: x0_4_ + x13_4_ <= 1
 R446: x0_5_ + x13_5_ <= 1
 R447: x0_6_ + x13_6_ <= 1
 R448: x0_7_ + x13_7_ <= 1
 R449: x0_8_ + x13_8_ <= 1
 R450: x0_9_ + x13_9_ <= 1
 R451: x10_0_ + x13_0_ <= 1
 R452: x10_1_ + x13_1_ <= 1
 R453: x10_2_ + x13_2_ <= 1
 R454: x10_3_ + x13_3_ <= 1
 R455: x10_4_ + x13_4_ <= 1
 R456: x10_5_ + x13_5_ <= 1
 R457: x10_6_ + x13_6_ <= 1
 R458: x10_7_ + x13_7_ <= 1
 R459: x10_8_ + x13_8_ <= 1
 R460: x10_9_ + x13_9_ <= 1
 R461: x13_0_ + x18_0_ <= 1
 R462: x13_1_ + x18_1_ <= 1
 R463: x13_2_ + x18_2_ <= 1
 R464: x13_3_ + x18_3_ <= 1
 R465: x13_4_ + x18_4_ <= 1
 R466: x13_5_ + x18_5_ <= 1
 R467: x13_6_ + x18_6_ <= 1
 R468: x13_7_ + x18_7_ <= 1
 R469: x13_8_ + x18_8_ <= 1
 R470: x13_9_ + x18_9_ <= 1
 R471: x1_7_ + x14_7_ <= 1
 R472: x1_8_ + x14_8_ <= 1
 R473: x1_9_ + x14_9_ <= 1
 R474: x4_7_ + x14_7_ <= 1
 R475: x4_8_ + x14_8_ <= 1
 R476: x4_9_ + x14_9_ <= 1
 R477: x7_7_ + x14_7_ <= 1
 R478: x7_8_ + x14_8_ <= 1
 R479: x7_9_ + x14_9_ <= 1
 R480: x11_7_ + x14_7_ <= 1
 R481: x11_8_ + x14_8_ <= 1
 R482: x11_9_ + x14_9_ <= 1
 R483: x14_7_ + x15_7_ <= 1
 R484: x14_8_ + x15_8_ <= 1
 R485: x14_9_ + x15_9_ <= 1
 R486: x14_7_ + x16_7_ <= 1
 R487: x14_8_ + x16_8_ <= 1
 R488: x14_9_ + x16_9_ <= 1
 R489: x14_7_ + x17_7_ <= 1
 R490: x14_8_ + x17_8_ <= 1
 R491: x14_9_ + x17_9_ <= 1
 R492: x1_7_ + x15_7_ <= 1
 R493: x1_8_ + x15_8_ <= 1
 R494: x1_9_ + x15_9_ <= 1
 R495: x2_7_ + x15_7_ <= 1
 R496: x2_8_ + x15_8_ <= 1
 R497: x2_9_ + x15_9_ <= 1
 R498: x4_7_ + x15_7_ <= 1
 R499: x4_8_ + x15_8_ <= 1
 R500: x4_9_ + x15_9_ <= 1
 R501: x6_7_ + x15_7_ <= 1
 R502: x6_8_ + x15_8_ <= 1
 R503: x6_9_ + x15_9_ <= 1
 R504: x7_7_ + x15_7_ <= 1
 R505: x7_8_ + x15_8_ <= 1
 R506: x7_9_ + x15_9_ <= 1
 R507: x8_7_ + x15_7_ <= 1
 R508: x8_8_ + x15_8_ <= 1
 R509: x8_9_ + x15_9_ <= 1
 R510: x9_7_ + x15_7_ <= 1
 R511: x9_8_ + x15_8_ <= 1
 R512: x9_9_ + x15_9_ <= 1
 R513: x10_7_ + x15_7_ <= 1
 R514: x10_8_ + x15_8_ <= 1
 R515: x10_9_ + x15_9_ <= 1
 R516: x11_7_ + x15_7_ <= 1
 R517: x11_8_ + x15_8_ <= 1
 R518: x11_9_ + x15_9_ <= 1
 R519: x12_7_ + x15_7_ <= 1
 R520: x12_8_ + x15_8_ <= 1
 R521: x12_9_ + x15_9_ <= 1
 R522: x14_7_ + x15_7_ <= 1
 R523: x14_8_ + x15_8_ <= 1
 R524: x14_9_ + x15_9_ <= 1
 R525: x15_7_ + x16_7_ <= 1
 R526: x15_8_ + x16_8_ <= 1
 R527: x15_9_ + x16_9_ <= 1
 R528: x15_7_ + x17_7_ <= 1
 R529: x15_8_ + x17_8_ <= 1
 R530: x15_9_ + x17_9_ <= 1
 R531: x15_7_ + x18_7_ <= 1
 R532: x15_8_ + x18_8_ <= 1
 R533: x15_9_ + x18_9_ <= 1
 R534: x15_7_ + x19_7_ <= 1
 R535: x15_8_ + x19_8_ <= 1
 R536: x15_9_ + x19_9_ <= 1
 R537: x7_0_ + x16_0_ <= 1
 R538: x7_1_ + x16_1_ <= 1
 R539: x7_2_ + x16_2_ <= 1
 R540: x7_3_ + x16_3_ <= 1
 R541: x7_4_ + x16_4_ <= 1
 R542: x7_5_ + x16_5_ <= 1
 R543: x7_6_ + x16_6_ <= 1
 R544: x7_7_ + x16_7_ <= 1
 R545: x7_8_ + x16_8_ <= 1
 R546: x7_9_ + x16_9_ <= 1
 R547: x8_0_ + x16_0_ <= 1
 R548: x8_1_ + x16_1_ <= 1
 R549: x8_2_ + x16_2_ <= 1
 R550: x8_3_ + x16_3_ <= 1
 R551: x8_4_ + x16_4_ <= 1
 R552: x8_5_ + x16_5_ <= 1
 R553: x8_6_ + x16_6_ <= 1
 R554: x8_7_ + x16_7_ <= 1
 R555: x8_8_ + x16_8_ <= 1
 R556: x8_9_ + x16_9_ <= 1
 R557: x9_0_ + x16_0_ <= 1
 R558: x9_1_ + x16_1_ <= 1
 R559: x9_2_ + x16_2_ <= 1
 R560: x9_3_ + x16_3_ <= 1
 R561: x9_4_ + x16_4_ <= 1
 R562: x9_5_ + x16_5_ <= 1
 R563: x9_6_ + x16_6_ <= 1
 R564: x9_7_ + x16_7_ <= 1
 R565: x9_8_ + x16_8_ <= 1
 R566: x9_9_ + x16_9_ <= 1
 R567: x16_0_ + x17_0_ <= 1
 R568: x16_1_ + x17_1_ <= 1
 R569: x16_2_ + x17_2_ <= 1
 R570: x16_3_ + x17_3_ <= 1
 R571: x16_4_ + x17_4_ <= 1
 R572: x16_5_ + x17_5_ <= 1
 R573: x16_6_ + x17_6_ <= 1
 R574: x16_7_ + x17_7_ <= 1
 R575: x16_8_ + x17_8_ <= 1
 R576: x16_9_ + x17_9_ <= 1
 R577: x7_0_ + x17_0_ <= 1
 R578: x7_1_ + x17_1_ <= 1
 R579: x7_2_ + x17_2_ <= 1
 R580: x7_3_ + x17_3_ <= 1
 R581: x7_4_ + x17_4_ <= 1
 R582: x7_5_ + x17_5_ <= 1
 R583: x7_6_ + x17_6_ <= 1
 R584: x7_7_ + x17_7_ <= 1
 R585: x7_8_ + x17_8_ <= 1
 R586: x7_9_ + x17_9_ <= 1
 R587: x8_0_ + x17_0_ <= 1
 R588: x8_1_ + x17_1_ <= 1
 R589: x8_2_ + x17_2_ <= 1
 R590: x8_3_ + x17_3_ <= 1
 R591: x8_4_ + x17_4_ <= 1
 R592: x8_5_ + x17_5_ <= 1
 R593: x8_6_ + x17_6_ <= 1
 R594: x8_7_ + x17_7_ <= 1
 R595: x8_8_ + x17_8_ <= 1
 R596: x8_9_ + x17_9_ <= 1
 R597: x9_0_ + x17_0_ <= 1
 R598: x9_1_ + x17_1_ <= 1
 R599: x9_2_ + x17_2_ <= 1
 R600: x9_3_ + x17_3_ <= 1
 R601: x9_4_ + x17_4_ <= 1
 R602: x9_5_ + x17_5_ <= 1
 R603: x9_6_ + x17_6_ <= 1
 R604: x9_7_ + x17_7_ <= 1
 R605: x9_8_ + x17_8_ <= 1
 R606: x9_9_ + x17_9_ <= 1
 R607: x10_0_ + x17_0_ <= 1
 R608: x10_1_ + x17_1_ <= 1
 R609: x10_2_ + x17_2_ <= 1
 R610: x10_3_ + x17_3_ <= 1
 R611: x10_4_ + x17_4_ <= 1
 R612: x10_5_ + x17_5_ <= 1
 R613: x10_6_ + x17_6_ <= 1
 R614: x10_7_ + x17_7_ <= 1
 R615: x10_8_ + x17_8_ <= 1
 R616: x10_9_ + x17_9_ <= 1
 R617: x16_0_ + x17_0_ <= 1
 R618: x16_1_ + x17_1_ <= 1
 R619: x16_2_ + x17_2_ <= 1
 R620: x16_3_ + x17_3_ <= 1
 R621: x16_4_ + x17_4_ <= 1
 R622: x16_5_ + x17_5_ <= 1
 R623: x16_6_ + x17_6_ <= 1
 R624: x16_7_ + x17_7_ <= 1
 R625: x16_8_ + x17_8_ <= 1
 R626: x16_9_ + x17_9_ <= 1
 R627: x17_0_ + x18_0_ <= 1
 R628: x17_1_ + x18_1_ <= 1
 R629: x17_2_ + x18_2_ <= 1
 R630: x17_3_ + x18_3_ <= 1
 R631: x17_4_ + x18_4_ <= 1
 R632: x17_5_ + x18_5_ <= 1
 R633: x17_6_ + x18_6_ <= 1
 R634: x17_7_ + x18_7_ <= 1
 R635: x17_8_ + x18_8_ <= 1
 R636: x17_9_ + x18_9_ <= 1
 R637: x17_0_ + x19_0_ <= 1
 R638: x17_1_ + x19_1_ <= 1
 R639: x17_2_ + x19_2_ <= 1
 R640: x17_3_ + x19_3_ <= 1
 R641: x17_4_ + x19_4_ <= 1
 R642: x17_5_ + x19_5_ <= 1
 R643: x17_6_ + x19_6_ <= 1
 R644: x17_7_ + x19_7_ <= 1
 R645: x17_8_ + x19_8_ <= 1
 R646: x17_9_ + x19_9_ <= 1
 R647: x0_0_ + x18_0_ <= 1
 R648: x0_1_ + x18_1_ <= 1
 R649: x0_2_ + x18_2_ <= 1
 R650: x0_3_ + x18_3_ <= 1
 R651: x0_4_ + x18_4_ <= 1
 R652: x0_5_ + x18_5_ <= 1
 R653: x0_6_ + x18_6_ <= 1
 R654: x0_7_ + x18_7_ <= 1
 R655: x0_8_ + x18_8_ <= 1
 R656: x0_9_ + x18_9_ <= 1
 R657: x8_0_ + x18_0_ <= 1
 R658: x8_1_ + x18_1_ <= 1
 R659: x8_2_ + x18_2_ <= 1
 R660: x8_3_ + x18_3_ <= 1
 R661: x8_4_ + x18_4_ <= 1
 R662: x8_5_ + x18_5_ <= 1
 R663: x8_6_ + x18_6_ <= 1
 R664: x8_7_ + x18_7_ <= 1
 R665: x8_8_ + x18_8_ <= 1
 R666: x8_9_ + x18_9_ <= 1
 R667: x10_0_ + x18_0_ <= 1
 R668: x10_1_ + x18_1_ <= 1
 R669: x10_2_ + x18_2_ <= 1
 R670: x10_3_ + x18_3_ <= 1
 R671: x10_4_ + x18_4_ <= 1
 R672: x10_5_ + x18_5_ <= 1
 R673: x10_6_ + x18_6_ <= 1
 R674: x10_7_ + x18_7_ <= 1
 R675: x10_8_ + x18_8_ <= 1
 R676: x10_9_ + x18_9_ <= 1
 R677: x13_0_ + x18_0_ <= 1
 R678: x13_1_ + x18_1_ <= 1
 R679: x13_2_ + x18_2_ <= 1
 R680: x13_3_ + x18_3_ <= 1
 R681: x13_4_ + x18_4_ <= 1
 R682: x13_5_ + x18_5_ <= 1
 R683: x13_6_ + x18_6_ <= 1
 R684: x13_7_ + x18_7_ <= 1
 R685: x13_8_ + x18_8_ <= 1
 R686: x13_9_ + x18_9_ <= 1
 R687: x17_0_ + x18_0_ <= 1
 R688: x17_1_ + x18_1_ <= 1
 R689: x17_2_ + x18_2_ <= 1
 R690: x17_3_ + x18_3_ <= 1
 R691: x17_4_ + x18_4_ <= 1
 R692: x17_5_ + x18_5_ <= 1
 R693: x17_6_ + x18_6_ <= 1
 R694: x17_7_ + x18_7_ <= 1
 R695: x17_8_ + x18_8_ <= 1
 R696: x17_9_ + x18_9_ <= 1
 R697: x18_0_ + x19_0_ <= 1
 R698: x18_1_ + x19_1_ <= 1
 R699: x18_2_ + x19_2_ <= 1
 R700: x18_3_ + x19_3_ <= 1
 R701: x18_4_ + x19_4_ <= 1
 R702: x18_5_ + x19_5_ <= 1
 R703: x18_6_ + x19_6_ <= 1
 R704: x18_7_ + x19_7_ <= 1
 R705: x18_8_ + x19_8_ <= 1
 R706: x18_9_ + x19_9_ <= 1
 R707: x8_0_ + x19_0_ <= 1
 R708: x8_1_ + x19_1_ <= 1
 R709: x8_2_ + x19_2_ <= 1
 R710: x8_3_ + x19_3_ <= 1
 R711: x8_4_ + x19_4_ <= 1
 R712: x8_5_ + x19_5_ <= 1
 R713: x8_6_ + x19_6_ <= 1
 R714: x8_7_ + x19_7_ <= 1
 R715: x8_8_ + x19_8_ <= 1
 R716: x8_9_ + x19_9_ <= 1
 R717: x10_0_ + x19_0_ <= 1
 R718: x10_1_ + x19_1_ <= 1
 R719: x10_2_ + x19_2_ <= 1
 R720: x10_3_ + x19_3_ <= 1
 R721: x10_4_ + x19_4_ <= 1
 R722: x10_5_ + x19_5_ <= 1
 R723: x10_6_ + x19_6_ <= 1
 R724: x10_7_ + x19_7_ <= 1
 R725: x10_8_ + x19_8_ <= 1
 R726: x10_9_ + x19_9_ <= 1
 R727: x17_0_ + x19_0_ <= 1
 R728: x17_1_ + x19_1_ <= 1
 R729: x17_2_ + x19_2_ <= 1
 R730: x17_3_ + x19_3_ <= 1
 R731: x17_4_ + x19_4_ <= 1
 R732: x17_5_ + x19_5_ <= 1
 R733: x17_6_ + x19_6_ <= 1
 R734: x17_7_ + x19_7_ <= 1
 R735: x17_8_ + x19_8_ <= 1
 R736: x17_9_ + x19_9_ <= 1
 R737: x18_0_ + x19_0_ <= 1
 R738: x18_1_ + x19_1_ <= 1
 R739: x18_2_ + x19_2_ <= 1
 R740: x18_3_ + x19_3_ <= 1
 R741: x18_4_ + x19_4_ <= 1
 R742: x18_5_ + x19_5_ <= 1
 R743: x18_6_ + x19_6_ <= 1
 R744: x18_7_ + x19_7_ <= 1
 R745: x18_8_ + x19_8_ <= 1
 R746: x18_9_ + x19_9_ <= 1
 R747: <= 1
Bounds
Binaries
 x0_0_ x0_1_ x0_2_ x0_3_ x0_4_ x0_5_ x0_6_ x0_7_ x0_8_ x0_9_ x0_n_ x1_6_
 x1_7_ x1_8_ x1_9_ x1_n_ x2_7_ x2_8_ x2_9_ x2_n_ x3_7_ x3_8_ x3_9_ x3_n_
 x4_7_ x4_8_ x4_9_ x4_n_ x5_0_ x5_1_ x5_2_ x5_3_ x5_4_ x5_5_ x5_6_ x5_7_
 x5_8_ x5_9_ x5_n_ x6_6_ x6_7_ x6_8_ x6_9_ x6_n_ x7_0_ x7_1_ x7_2_ x7_3_
 x7_4_ x7_5_ x7_6_ x7_7_ x7_8_ x7_9_ x7_n_ x8_0_ x8_1_ x8_2_ x8_3_ x8_4_
 x8_5_ x8_6_ x8_7_ x8_8_ x8_9_ x8_n_ x9_0_ x9_1_ x9_2_ x9_3_ x9_4_ x9_5_
 x9_6_ x9_7_ x9_8_ x9_9_ x9_n_ x10_0_ x10_1_ x10_2_ x10_3_ x10_4_ x10_5_
 x10_6_ x10_7_ x10_8_ x10_9_ x10_n_ x11_6_ x11_7_ x11_8_ x11_9_ x11_n_
 x12_6_ x12_7_ x12_8_ x12_9_ x12_n_ x13_0_ x13_1_ x13_2_ x13_3_ x13_4_
 x13_5_ x13_6_ x13_7_ x13_8_ x13_9_ x13_n_ x14_7_ x14_8_ x14_9_ x14_n_
 x15_7_ x15_8_ x15_9_ x15_n_ x16_0_ x16_1_ x16_2_ x16_3_ x16_4_ x16_5_
 x16_6_ x16_7_ x16_8_ x16_9_ x16_n_ x17_0_ x17_1_ x17_2_ x17_3_ x17_4_
 x17_5_ x17_6_ x17_7_ x17_8_ x17_9_ x17_n_ x18_0_ x18_1_ x18_2_ x18_3_
 x18_4_ x18_5_ x18_6_ x18_7_ x18_8_ x18_9_ x18_n_ x19_0_ x19_1_ x19_2_
 x19_3_ x19_4_ x19_5_ x19_6_ x19_7_ x19_8_ x19_9_ x19_n_
End
